(set-logic QF_LRA)
(declare-fun X0 () Real )
(declare-fun Y0 () Real )
(declare-fun X1 () Real )
(declare-fun Y1 () Real )
(declare-fun X2 () Real )
(declare-fun Y2 () Real )
(declare-fun X3 () Real )
(declare-fun Y3 () Real )
(declare-fun X4 () Real )
(declare-fun Y4 () Real )
(declare-fun X5 () Real )
(declare-fun Y5 () Real )
(declare-fun Z () Real )
(declare-fun k () Real )
(assert (let
(( $goal (>= Z k) ))
(let
((
$phi ( and 
( or ( <= ( + X0 92 ) X1 )  ( <= ( + X1 16 ) X0 )  ( <= ( + Y0 86 ) Y1 )  ( <= ( + Y1 81 ) Y0 )  )
( or ( <= ( + X0 92 ) X2 )  ( <= ( + X2 72 ) X0 )  ( <= ( + Y0 86 ) Y2 )  ( <= ( + Y2 14 ) Y0 )  )
( or ( <= ( + X0 92 ) X3 )  ( <= ( + X3 96 ) X0 )  ( <= ( + Y0 86 ) Y3 )  ( <= ( + Y3 59 ) Y0 )  )
( or ( <= ( + X0 92 ) X4 )  ( <= ( + X4 45 ) X0 )  ( <= ( + Y0 86 ) Y4 )  ( <= ( + Y4 96 ) Y0 )  )
( or ( <= ( + X0 92 ) X5 )  ( <= ( + X5 72 ) X0 )  ( <= ( + Y0 86 ) Y5 )  ( <= ( + Y5 94 ) Y0 )  )
( or ( <= ( + X1 16 ) X2 )  ( <= ( + X2 72 ) X1 )  ( <= ( + Y1 81 ) Y2 )  ( <= ( + Y2 14 ) Y1 )  )
( or ( <= ( + X1 16 ) X3 )  ( <= ( + X3 96 ) X1 )  ( <= ( + Y1 81 ) Y3 )  ( <= ( + Y3 59 ) Y1 )  )
( or ( <= ( + X1 16 ) X4 )  ( <= ( + X4 45 ) X1 )  ( <= ( + Y1 81 ) Y4 )  ( <= ( + Y4 96 ) Y1 )  )
( or ( <= ( + X1 16 ) X5 )  ( <= ( + X5 72 ) X1 )  ( <= ( + Y1 81 ) Y5 )  ( <= ( + Y5 94 ) Y1 )  )
( or ( <= ( + X2 72 ) X3 )  ( <= ( + X3 96 ) X2 )  ( <= ( + Y2 14 ) Y3 )  ( <= ( + Y3 59 ) Y2 )  )
( or ( <= ( + X2 72 ) X4 )  ( <= ( + X4 45 ) X2 )  ( <= ( + Y2 14 ) Y4 )  ( <= ( + Y4 96 ) Y2 )  )
( or ( <= ( + X2 72 ) X5 )  ( <= ( + X5 72 ) X2 )  ( <= ( + Y2 14 ) Y5 )  ( <= ( + Y5 94 ) Y2 )  )
( or ( <= ( + X3 96 ) X4 )  ( <= ( + X4 45 ) X3 )  ( <= ( + Y3 59 ) Y4 )  ( <= ( + Y4 96 ) Y3 )  )
( or ( <= ( + X3 96 ) X5 )  ( <= ( + X5 72 ) X3 )  ( <= ( + Y3 59 ) Y5 )  ( <= ( + Y5 94 ) Y3 )  )
( or ( <= ( + X4 45 ) X5 )  ( <= ( + X5 72 ) X4 )  ( <= ( + Y4 96 ) Y5 )  ( <= ( + Y5 94 ) Y4 )  )
( >= X0 0)
( <= ( + X0 92) Z)
( >= Y0 0)
( <= ( + Y0 86 ) 100)
( >= X1 0)
( <= ( + X1 16) Z)
( >= Y1 0)
( <= ( + Y1 81 ) 100)
( >= X2 0)
( <= ( + X2 72) Z)
( >= Y2 0)
( <= ( + Y2 14 ) 100)
( >= X3 0)
( <= ( + X3 96) Z)
( >= Y3 0)
( <= ( + Y3 59 ) 100)
( >= X4 0)
( <= ( + X4 45) Z)
( >= Y4 0)
( <= ( + Y4 96 ) 100)
( >= X5 0)
( <= ( + X5 72) Z)
( >= Y5 0)
( <= ( + Y5 94 ) 100)
) )
)(=> $phi $goal))))